33D32945 STP File, STP Format Version 1.0

SECTION Comment
Name "i640-302-PCST"
Creator "Indaco Biazzo" 
Remark "derived from Incidence graph by Cees Duin"
END

SECTION Graph
Nodes 640
Edges 960
E 1 180 203.000000
E 1 200 196.000000
E 1 279 189.000000
E 1 296 205.000000
E 1 305 200.000000
E 1 379 201.000000
E 1 392 201.000000
E 1 415 200.000000
E 1 425 190.000000
E 1 435 199.000000
E 1 541 204.000000
E 1 617 207.000000
E 2 261 199.000000
E 3 254 187.000000
E 3 368 198.000000
E 3 617 202.000000
E 4 99 303.000000
E 4 404 193.000000
E 4 526 197.000000
E 5 237 201.000000
E 6 279 208.000000
E 6 373 192.000000
E 7 382 203.000000
E 8 10 303.000000
E 8 402 200.000000
E 9 148 302.000000
E 9 373 200.000000
E 10 89 297.000000
E 10 232 202.000000
E 10 370 205.000000
E 10 602 208.000000
E 11 197 210.000000
E 11 442 198.000000
E 11 561 199.000000
E 12 91 302.000000
E 12 464 194.000000
E 13 70 303.000000
E 13 118 297.000000
E 14 256 201.000000
E 14 259 198.000000
E 14 387 192.000000
E 15 66 303.000000
E 15 74 304.000000
E 15 100 302.000000
E 16 67 295.000000
E 16 240 196.000000
E 16 361 199.000000
E 16 409 199.000000
E 16 578 199.000000
E 16 636 198.000000
E 17 259 195.000000
E 17 346 205.000000
E 17 613 194.000000
E 18 158 299.000000
E 18 562 191.000000
E 19 39 301.000000
E 19 158 308.000000
E 19 208 198.000000
E 19 224 192.000000
E 19 241 205.000000
E 19 288 204.000000
E 19 446 193.000000
E 20 52 300.000000
E 20 126 298.000000
E 20 140 298.000000
E 20 357 196.000000
E 20 630 191.000000
E 21 86 300.000000
E 21 92 297.000000
E 21 202 200.000000
E 21 505 197.000000
E 21 508 209.000000
E 21 537 202.000000
E 22 117 295.000000
E 22 536 201.000000
E 23 297 189.000000
E 24 214 206.000000
E 24 433 199.000000
E 25 180 206.000000
E 25 241 196.000000
E 25 317 189.000000
E 26 239 200.000000
E 26 500 204.000000
E 27 293 205.000000
E 27 396 202.000000
E 27 443 205.000000
E 28 49 300.000000
E 28 125 294.000000
E 28 127 296.000000
E 28 178 193.000000
E 28 227 200.000000
E 28 280 194.000000
E 28 461 194.000000
E 29 89 304.000000
E 29 186 205.000000
E 29 422 193.000000
E 29 443 204.000000
E 30 56 303.000000
E 31 354 207.000000
E 31 429 193.000000
E 31 444 207.000000
E 31 468 194.000000
E 32 489 198.000000
E 32 617 195.000000
E 33 71 302.000000
E 33 148 300.000000
E 33 303 191.000000
E 33 556 206.000000
E 34 348 191.000000
E 35 293 204.000000
E 35 452 195.000000
E 35 535 195.000000
E 35 629 200.000000
E 36 128 298.000000
E 36 321 192.000000
E 37 550 201.000000
E 38 461 204.000000
E 39 79 290.000000
E 39 177 200.000000
E 40 69 305.000000
E 40 354 198.000000
E 40 369 194.000000
E 40 552 196.000000
E 40 576 199.000000
E 41 67 301.000000
E 41 490 205.000000
E 41 607 195.000000
E 42 104 301.000000
E 42 105 295.000000
E 42 129 297.000000
E 42 144 301.000000
E 42 229 204.000000
E 42 232 201.000000
E 42 427 208.000000
E 42 560 199.000000
E 42 612 195.000000
E 43 60 299.000000
E 43 86 305.000000
E 43 325 205.000000
E 43 328 196.000000
E 44 52 295.000000
E 44 69 302.000000
E 44 82 303.000000
E 44 204 209.000000
E 44 350 201.000000
E 45 267 207.000000
E 45 417 202.000000
E 46 71 301.000000
E 47 189 193.000000
E 47 379 194.000000
E 47 495 199.000000
E 48 486 197.000000
E 48 617 200.000000
E 48 620 200.000000
E 49 134 297.000000
E 50 234 201.000000
E 50 253 203.000000
E 50 295 203.000000
E 50 574 208.000000
E 50 625 194.000000
E 51 254 207.000000
E 51 633 204.000000
E 52 504 200.000000
E 53 156 300.000000
E 53 338 197.000000
E 54 158 299.000000
E 54 220 206.000000
E 54 267 193.000000
E 54 638 200.000000
E 55 133 297.000000
E 55 174 195.000000
E 55 314 190.000000
E 55 362 201.000000
E 55 584 196.000000
E 56 109 297.000000
E 56 635 200.000000
E 57 268 207.000000
E 57 621 202.000000
E 57 640 200.000000
E 58 84 300.000000
E 58 387 204.000000
E 58 553 196.000000
E 58 614 205.000000
E 59 261 195.000000
E 59 497 202.000000
E 59 570 198.000000
E 60 212 200.000000
E 61 73 308.000000
E 61 372 197.000000
E 61 405 200.000000
E 61 455 198.000000
E 61 577 193.000000
E 61 622 200.000000
E 61 625 206.000000
E 62 577 197.000000
E 62 608 205.000000
E 63 169 201.000000
E 63 360 207.000000
E 63 599 198.000000
E 64 155 299.000000
E 64 592 201.000000
E 65 338 205.000000
E 66 460 203.000000
E 67 331 201.000000
E 67 545 201.000000
E 68 122 297.000000
E 68 156 292.000000
E 68 324 198.000000
E 70 235 200.000000
E 70 620 199.000000
E 71 265 201.000000
E 71 300 199.000000
E 71 526 199.000000
E 72 205 198.000000
E 72 326 203.000000
E 72 591 203.000000
E 72 600 201.000000
E 73 208 205.000000
E 73 408 193.000000
E 74 260 202.000000
E 74 627 202.000000
E 75 90 300.000000
E 75 252 198.000000
E 75 350 202.000000
E 76 536 194.000000
E 77 264 202.000000
E 77 496 198.000000
E 78 164 202.000000
E 78 192 192.000000
E 78 404 198.000000
E 79 296 199.000000
E 79 463 201.000000
E 79 520 203.000000
E 80 225 201.000000
E 81 409 203.000000
E 81 449 203.000000
E 81 465 201.000000
E 81 469 208.000000
E 81 522 201.000000
E 81 536 203.000000
E 81 542 201.000000
E 82 375 200.000000
E 82 603 187.000000
E 83 211 205.000000
E 83 449 203.000000
E 84 187 200.000000
E 84 304 202.000000
E 85 199 204.000000
E 86 354 202.000000
E 87 315 196.000000
E 87 440 205.000000
E 87 472 203.000000
E 87 493 199.000000
E 88 221 193.000000
E 88 261 196.000000
E 89 170 202.000000
E 89 541 198.000000
E 90 91 297.000000
E 90 236 197.000000
E 90 503 199.000000
E 91 230 194.000000
E 91 404 200.000000
E 91 636 201.000000
E 92 207 198.000000
E 92 288 198.000000
E 92 404 192.000000
E 92 546 192.000000
E 93 118 300.000000
E 93 489 192.000000
E 93 594 200.000000
E 94 187 207.000000
E 94 237 195.000000
E 94 561 190.000000
E 95 394 198.000000
E 95 416 203.000000
E 95 596 201.000000
E 95 624 199.000000
E 96 416 200.000000
E 97 457 208.000000
E 97 608 199.000000
E 97 617 202.000000
E 98 100 302.000000
E 98 102 302.000000
E 98 323 196.000000
E 98 545 186.000000
E 99 133 303.000000
E 99 240 191.000000
E 99 523 198.000000
E 99 631 197.000000
E 100 210 198.000000
E 101 116 296.000000
E 101 418 195.000000
E 101 510 205.000000
E 102 225 201.000000
E 102 527 189.000000
E 103 108 300.000000
E 104 590 205.000000
E 106 191 193.000000
E 106 192 200.000000
E 106 409 197.000000
E 106 506 198.000000
E 106 577 207.000000
E 107 275 199.000000
E 107 599 203.000000
E 108 600 203.000000
E 109 220 199.000000
E 109 377 200.000000
E 109 475 201.000000
E 110 192 203.000000
E 110 400 190.000000
E 111 503 198.000000
E 112 284 203.000000
E 112 514 197.000000
E 113 137 299.000000
E 113 270 204.000000
E 113 316 198.000000
E 114 267 205.000000
E 114 520 194.000000
E 114 547 195.000000
E 115 141 297.000000
E 115 565 198.000000
E 116 213 206.000000
E 116 303 199.000000
E 116 387 196.000000
E 116 493 195.000000
E 116 626 207.000000
E 117 277 204.000000
E 117 508 203.000000
E 118 185 201.000000
E 118 317 194.000000
E 118 516 195.000000
E 118 533 208.000000
E 118 546 206.000000
E 118 613 204.000000
E 119 305 195.000000
E 120 267 201.000000
E 121 322 204.000000
E 121 385 197.000000
E 122 246 196.000000
E 122 353 194.000000
E 122 362 194.000000
E 122 493 199.000000
E 122 532 206.000000
E 123 178 203.000000
E 123 288 199.000000
E 123 337 195.000000
E 123 365 201.000000
E 124 192 209.000000
E 124 316 199.000000
E 124 438 195.000000
E 124 493 188.000000
E 125 256 197.000000
E 125 604 199.000000
E 126 138 294.000000
E 126 206 203.000000
E 126 622 205.000000
E 127 197 208.000000
E 127 261 197.000000
E 128 144 303.000000
E 128 169 198.000000
E 128 227 193.000000
E 128 450 202.000000
E 128 527 205.000000
E 130 226 196.000000
E 130 342 194.000000
E 131 429 198.000000
E 131 471 212.000000
E 132 415 203.000000
E 132 554 202.000000
E 133 299 206.000000
E 133 339 203.000000
E 133 511 192.000000
E 133 594 195.000000
E 134 161 193.000000
E 134 491 201.000000
E 135 460 197.000000
E 135 481 206.000000
E 135 610 191.000000
E 136 328 193.000000
E 136 478 198.000000
E 137 152 297.000000
E 137 562 202.000000
E 138 225 198.000000
E 138 542 198.000000
E 138 584 198.000000
E 139 148 295.000000
E 139 171 191.000000
E 139 295 200.000000
E 139 577 196.000000
E 139 586 201.000000
E 139 617 199.000000
E 140 288 194.000000
E 140 291 200.000000
E 141 179 190.000000
E 141 330 200.000000
E 141 503 203.000000
E 141 534 194.000000
E 141 604 203.000000
E 142 284 191.000000
E 143 328 202.000000
E 144 212 198.000000
E 144 397 190.000000
E 144 578 194.000000
E 145 267 198.000000
E 145 501 189.000000
E 146 272 206.000000
E 146 469 197.000000
E 146 518 191.000000
E 147 222 202.000000
E 147 446 201.000000
E 148 157 301.000000
E 148 231 200.000000
E 148 420 195.000000
E 148 430 195.000000
E 148 488 205.000000
E 148 561 211.000000
E 149 173 199.000000
E 149 568 195.000000
E 150 261 193.000000
E 151 192 201.000000
E 152 535 200.000000
E 153 420 196.000000
E 153 628 200.000000
E 154 373 199.000000
E 154 535 203.000000
E 155 401 192.000000
E 155 512 200.000000
E 155 527 201.000000
E 156 367 193.000000
E 156 538 202.000000
E 157 451 204.000000
E 158 324 192.000000
E 158 547 201.000000
E 159 572 191.000000
E 160 626 201.000000
E 161 442 104.000000
E 162 441 98.000000
E 163 411 98.000000
E 164 195 109.000000
E 164 201 98.000000
E 164 344 94.000000
E 165 264 94.000000
E 166 171 100.000000
E 166 407 108.000000
E 166 634 104.000000
E 167 247 98.000000
E 168 180 101.000000
E 170 473 100.000000
E 170 556 96.000000
E 171 573 106.000000
E 172 384 98.000000
E 172 481 110.000000
E 173 515 108.000000
E 174 189 98.000000
E 174 316 97.000000
E 175 466 108.000000
E 175 599 104.000000
E 176 448 110.000000
E 176 576 100.000000
E 176 640 100.000000
E 177 300 98.000000
E 178 263 105.000000
E 178 361 103.000000
E 178 487 107.000000
E 179 421 103.000000
E 180 323 104.000000
E 180 416 101.000000
E 180 507 101.000000
E 181 281 110.000000
E 181 359 101.000000
E 181 514 94.000000
E 182 185 101.000000
E 182 252 97.000000
E 183 521 97.000000
E 184 500 102.000000
E 184 556 104.000000
E 185 490 101.000000
E 186 317 89.000000
E 187 443 92.000000
E 188 392 91.000000
E 188 579 101.000000
E 189 447 104.000000
E 190 478 97.000000
E 190 572 91.000000
E 191 428 98.000000
E 191 466 92.000000
E 191 605 98.000000
E 192 292 96.000000
E 192 417 103.000000
E 192 566 105.000000
E 193 269 100.000000
E 193 424 107.000000
E 193 575 103.000000
E 194 431 104.000000
E 194 494 99.000000
E 195 401 96.000000
E 195 482 103.000000
E 196 405 95.000000
E 196 512 102.000000
E 196 615 101.000000
E 197 625 106.000000
E 197 630 93.000000
E 198 455 98.000000
E 199 216 95.000000
E 199 223 111.000000
E 199 446 113.000000
E 200 306 101.000000
E 200 466 105.000000
E 201 483 104.000000
E 201 551 99.000000
E 203 379 99.000000
E 205 243 97.000000
E 206 349 100.000000
E 206 516 92.000000
E 207 290 93.000000
E 207 355 100.000000
E 207 421 100.000000
E 207 608 96.000000
E 209 384 107.000000
E 211 484 103.000000
E 211 542 98.000000
E 212 291 100.000000
E 212 518 91.000000
E 213 463 96.000000
E 214 292 93.000000
E 214 367 109.000000
E 214 389 100.000000
E 214 606 95.000000
E 215 251 107.000000
E 215 439 91.000000
E 217 243 99.000000
E 217 264 99.000000
E 217 378 99.000000
E 217 474 111.000000
E 218 613 104.000000
E 219 334 103.000000
E 219 409 97.000000
E 219 535 100.000000
E 220 379 96.000000
E 220 540 105.000000
E 221 273 112.000000
E 221 633 99.000000
E 222 227 94.000000
E 222 276 98.000000
E 223 485 107.000000
E 224 467 96.000000
E 224 521 97.000000
E 225 617 104.000000
E 226 436 100.000000
E 227 294 106.000000
E 227 295 95.000000
E 227 330 104.000000
E 227 363 104.000000
E 227 388 95.000000
E 227 395 102.000000
E 228 402 97.000000
E 229 300 101.000000
E 229 308 93.000000
E 229 318 98.000000
E 229 348 101.000000
E 229 373 93.000000
E 229 386 101.000000
E 230 519 92.000000
E 230 593 103.000000
E 231 384 101.000000
E 231 473 97.000000
E 231 490 95.000000
E 232 565 103.000000
E 233 349 98.000000
E 234 552 102.000000
E 235 522 108.000000
E 236 554 104.000000
E 237 638 99.000000
E 238 573 96.000000
E 239 442 92.000000
E 239 516 96.000000
E 239 564 97.000000
E 240 391 105.000000
E 240 401 98.000000
E 240 441 93.000000
E 241 628 97.000000
E 242 270 102.000000
E 242 509 100.000000
E 243 364 90.000000
E 244 443 100.000000
E 245 256 99.000000
E 245 495 96.000000
E 245 617 98.000000
E 246 340 96.000000
E 246 351 98.000000
E 247 287 107.000000
E 247 377 93.000000
E 247 433 99.000000
E 247 512 102.000000
E 248 477 93.000000
E 249 373 99.000000
E 249 446 90.000000
E 249 549 98.000000
E 249 557 89.000000
E 249 579 98.000000
E 250 585 104.000000
E 251 373 103.000000
E 252 296 97.000000
E 252 512 94.000000
E 253 439 95.000000
E 253 578 90.000000
E 253 579 100.000000
E 254 325 100.000000
E 254 547 104.000000
E 254 606 93.000000
E 255 439 100.000000
E 255 632 108.000000
E 256 431 99.000000
E 256 571 100.000000
E 257 409 100.000000
E 258 301 97.000000
E 259 267 104.000000
E 259 525 99.000000
E 259 548 104.000000
E 260 590 100.000000
E 261 274 100.000000
E 262 307 109.000000
E 262 599 101.000000
E 263 319 98.000000
E 263 362 110.000000
E 263 425 101.000000
E 264 339 91.000000
E 265 447 93.000000
E 266 276 91.000000
E 267 298 91.000000
E 267 316 97.000000
E 267 412 95.000000
E 267 528 94.000000
E 269 357 101.000000
E 269 360 101.000000
E 269 499 95.000000
E 270 574 107.000000
E 270 626 109.000000
E 271 314 102.000000
E 271 441 95.000000
E 271 636 94.000000
E 272 288 107.000000
E 273 455 98.000000
E 274 519 98.000000
E 275 371 95.000000
E 276 498 102.000000
E 277 292 107.000000
E 277 339 100.000000
E 278 370 109.000000
E 278 567 100.000000
E 279 312 97.000000
E 279 329 95.000000
E 280 481 112.000000
E 280 535 104.000000
E 280 607 102.000000
E 281 379 98.000000
E 282 507 98.000000
E 283 286 98.000000
E 283 427 92.000000
E 285 346 100.000000
E 285 405 98.000000
E 285 525 107.000000
E 287 418 99.000000
E 287 482 103.000000
E 288 530 94.000000
E 288 603 91.000000
E 289 364 95.000000
E 291 309 100.000000
E 292 456 99.000000
E 292 565 102.000000
E 293 457 102.000000
E 293 472 97.000000
E 294 296 101.000000
E 294 415 98.000000
E 297 514 105.000000
E 297 525 100.000000
E 298 594 96.000000
E 301 447 97.000000
E 301 460 94.000000
E 302 619 109.000000
E 303 384 99.000000
E 304 379 94.000000
E 304 581 108.000000
E 304 602 98.000000
E 305 327 103.000000
E 305 446 99.000000
E 305 543 99.000000
E 306 357 110.000000
E 306 610 105.000000
E 307 342 97.000000
E 307 391 91.000000
E 308 321 99.000000
E 308 385 102.000000
E 308 604 94.000000
E 310 612 97.000000
E 311 338 106.000000
E 312 459 104.000000
E 313 541 97.000000
E 314 386 98.000000
E 314 491 102.000000
E 315 329 100.000000
E 315 551 93.000000
E 316 381 106.000000
E 316 614 105.000000
E 317 623 100.000000
E 318 484 106.000000
E 318 577 100.000000
E 319 511 95.000000
E 319 636 90.000000
E 320 427 104.000000
E 320 507 101.000000
E 321 477 103.000000
E 322 509 95.000000
E 322 562 98.000000
E 323 402 105.000000
E 325 477 95.000000
E 325 536 96.000000
E 325 540 98.000000
E 326 526 101.000000
E 327 341 101.000000
E 328 413 100.000000
E 328 522 97.000000
E 328 558 105.000000
E 329 495 101.000000
E 329 587 97.000000
E 330 537 100.000000
E 330 620 102.000000
E 332 405 95.000000
E 332 601 94.000000
E 333 555 93.000000
E 335 413 96.000000
E 335 607 106.000000
E 336 338 99.000000
E 337 390 98.000000
E 337 493 96.000000
E 338 365 106.000000
E 338 560 103.000000
E 339 443 98.000000
E 339 446 102.000000
E 340 586 99.000000
E 341 448 98.000000
E 342 447 109.000000
E 342 449 102.000000
E 342 496 102.000000
E 342 518 83.000000
E 342 609 98.000000
E 343 516 100.000000
E 343 573 101.000000
E 345 434 96.000000
E 345 537 99.000000
E 347 436 86.000000
E 347 479 105.000000
E 347 588 102.000000
E 348 471 89.000000
E 348 601 101.000000
E 349 453 96.000000
E 350 381 104.000000
E 350 567 98.000000
E 350 619 104.000000
E 351 376 103.000000
E 351 382 105.000000
E 351 580 100.000000
E 352 359 93.000000
E 352 631 102.000000
E 353 374 95.000000
E 353 427 103.000000
E 353 537 98.000000
E 353 640 99.000000
E 354 363 105.000000
E 354 382 104.000000
E 355 613 94.000000
E 356 387 91.000000
E 357 383 97.000000
E 357 616 102.000000
E 358 465 102.000000
E 359 377 100.000000
E 360 395 89.000000
E 360 479 91.000000
E 360 633 102.000000
E 362 496 102.000000
E 363 470 95.000000
E 363 573 99.000000
E 364 453 97.000000
E 365 480 97.000000
E 365 597 103.000000
E 366 599 112.000000
E 366 621 105.000000
E 368 460 96.000000
E 370 398 105.000000
E 370 546 96.000000
E 371 498 99.000000
E 375 495 87.000000
E 376 534 98.000000
E 377 623 102.000000
E 379 442 100.000000
E 380 438 104.000000
E 380 568 106.000000
E 382 405 97.000000
E 383 482 99.000000
E 383 577 102.000000
E 385 446 105.000000
E 387 393 93.000000
E 387 411 103.000000
E 387 518 102.000000
E 387 594 109.000000
E 388 492 96.000000
E 389 623 99.000000
E 391 515 104.000000
E 391 573 94.000000
E 393 410 103.000000
E 393 454 98.000000
E 393 479 93.000000
E 395 400 98.000000
E 395 411 98.000000
E 395 473 109.000000
E 395 583 97.000000
E 395 607 92.000000
E 398 454 104.000000
E 399 604 105.000000
E 400 634 106.000000
E 402 539 101.000000
E 402 571 100.000000
E 403 456 105.000000
E 403 572 101.000000
E 404 537 102.000000
E 405 617 97.000000
E 406 420 104.000000
E 407 490 97.000000
E 407 533 98.000000
E 408 556 99.000000
E 409 548 104.000000
E 409 569 91.000000
E 410 570 88.000000
E 412 420 96.000000
E 413 517 101.000000
E 414 583 103.000000
E 415 604 106.000000
E 416 494 104.000000
E 419 559 101.000000
E 420 439 93.000000
E 420 482 99.000000
E 421 425 100.000000
E 421 639 97.000000
E 423 624 98.000000
E 424 469 100.000000
E 426 613 109.000000
E 428 471 90.000000
E 429 457 99.000000
E 429 493 96.000000
E 431 433 103.000000
E 431 587 98.000000
E 431 604 103.000000
E 432 532 104.000000
E 432 539 101.000000
E 434 471 99.000000
E 434 526 94.000000
E 434 604 93.000000
E 435 532 99.000000
E 436 549 97.000000
E 437 603 99.000000
E 437 631 91.000000
E 439 587 101.000000
E 440 603 102.000000
E 440 631 99.000000
E 441 595 107.000000
E 443 557 96.000000
E 443 604 93.000000
E 445 519 101.000000
E 446 538 102.000000
E 446 583 103.000000
E 446 600 95.000000
E 446 617 98.000000
E 448 617 98.000000
E 449 624 90.000000
E 450 604 101.000000
E 456 479 104.000000
E 458 463 99.000000
E 460 617 96.000000
E 462 490 99.000000
E 462 611 86.000000
E 463 541 96.000000
E 463 617 104.000000
E 464 500 98.000000
E 465 530 104.000000
E 465 598 105.000000
E 465 637 99.000000
E 466 537 103.000000
E 467 546 102.000000
E 469 471 98.000000
E 470 614 98.000000
E 474 550 101.000000
E 475 582 105.000000
E 476 608 98.000000
E 479 547 99.000000
E 479 621 103.000000
E 482 484 105.000000
E 483 508 91.000000
E 484 593 96.000000
E 485 611 100.000000
E 488 494 102.000000
E 490 529 105.000000
E 490 572 103.000000
E 491 528 104.000000
E 492 509 97.000000
E 492 552 101.000000
E 494 540 109.000000
E 495 515 96.000000
E 498 532 99.000000
E 498 568 98.000000
E 498 580 101.000000
E 502 597 106.000000
E 504 581 96.000000
E 506 508 101.000000
E 508 522 93.000000
E 508 611 101.000000
E 509 531 102.000000
E 512 571 96.000000
E 513 605 94.000000
E 514 524 89.000000
E 514 613 97.000000
E 516 526 101.000000
E 517 565 95.000000
E 519 566 96.000000
E 522 542 97.000000
E 522 571 103.000000
E 522 582 96.000000
E 525 621 96.000000
E 527 629 98.000000
E 528 606 87.000000
E 532 544 102.000000
E 532 605 92.000000
E 536 611 104.000000
E 537 626 97.000000
E 540 624 110.000000
E 540 629 110.000000
E 542 543 91.000000
E 542 639 102.000000
E 546 554 97.000000
E 546 572 100.000000
E 551 571 95.000000
E 551 603 103.000000
E 553 590 99.000000
E 555 569 99.000000
E 556 601 95.000000
E 559 577 104.000000
E 559 592 99.000000
E 563 564 98.000000
E 565 606 92.000000
E 565 608 99.000000
E 571 575 93.000000
E 572 581 102.000000
E 573 634 101.000000
E 578 621 99.000000
E 580 619 93.000000
E 581 620 96.000000
E 583 609 94.000000
E 585 605 100.000000
E 589 631 93.000000
E 605 614 103.000000
E 618 632 99.000000
END

SECTION Terminals
Terminals 160
TP 1 556.000000
TP 2 944.000000
TP 3 528.000000
TP 4 736.000000
TP 5 448.000000
TP 6 1152.000000
TP 7 192.000000
TP 8 296.000000
TP 9 892.000000
TP 10 1092.000000
TP 11 144.000000
TP 12 260.000000
TP 13 588.000000
TP 14 740.000000
TP 15 1176.000000
TP 16 832.000000
TP 17 1076.000000
TP 18 528.000000
TP 19 1044.000000
TP 20 188.000000
TP 21 404.000000
TP 22 736.000000
TP 23 788.000000
TP 24 252.000000
TP 25 976.000000
TP 26 64.000000
TP 27 240.000000
TP 28 216.000000
TP 29 1036.000000
TP 30 768.000000
TP 31 404.000000
TP 32 768.000000
TP 33 312.000000
TP 34 388.000000
TP 35 444.000000
TP 36 312.000000
TP 37 328.000000
TP 38 560.000000
TP 39 16.000000
TP 40 116.000000
TP 41 888.000000
TP 42 204.000000
TP 43 848.000000
TP 44 880.000000
TP 45 364.000000
TP 46 532.000000
TP 47 836.000000
TP 48 112.000000
TP 49 372.000000
TP 50 1048.000000
TP 51 840.000000
TP 52 720.000000
TP 53 244.000000
TP 54 764.000000
TP 55 1216.000000
TP 56 760.000000
TP 57 532.000000
TP 58 872.000000
TP 59 240.000000
TP 60 332.000000
TP 61 212.000000
TP 62 448.000000
TP 63 860.000000
TP 64 184.000000
TP 65 1132.000000
TP 66 432.000000
TP 67 1168.000000
TP 68 384.000000
TP 69 308.000000
TP 70 500.000000
TP 71 800.000000
TP 72 464.000000
TP 73 324.000000
TP 74 472.000000
TP 75 736.000000
TP 76 92.000000
TP 77 836.000000
TP 78 780.000000
TP 79 384.000000
TP 80 228.000000
TP 81 760.000000
TP 82 576.000000
TP 83 764.000000
TP 84 1172.000000
TP 85 676.000000
TP 86 236.000000
TP 87 492.000000
TP 88 236.000000
TP 89 304.000000
TP 90 544.000000
TP 91 764.000000
TP 92 572.000000
TP 93 108.000000
TP 94 512.000000
TP 95 48.000000
TP 96 364.000000
TP 97 752.000000
TP 98 1196.000000
TP 99 280.000000
TP 100 612.000000
TP 101 1172.000000
TP 102 1192.000000
TP 103 76.000000
TP 104 968.000000
TP 105 1176.000000
TP 106 792.000000
TP 107 444.000000
TP 108 812.000000
TP 109 112.000000
TP 110 952.000000
TP 111 1068.000000
TP 112 208.000000
TP 113 28.000000
TP 114 872.000000
TP 115 364.000000
TP 116 612.000000
TP 117 148.000000
TP 118 132.000000
TP 119 892.000000
TP 120 196.000000
TP 121 1068.000000
TP 122 76.000000
TP 123 408.000000
TP 124 620.000000
TP 125 1068.000000
TP 126 700.000000
TP 127 888.000000
TP 128 792.000000
TP 129 1224.000000
TP 130 1164.000000
TP 131 320.000000
TP 132 628.000000
TP 133 1132.000000
TP 134 700.000000
TP 135 1164.000000
TP 136 260.000000
TP 137 736.000000
TP 138 240.000000
TP 139 336.000000
TP 140 1172.000000
TP 141 724.000000
TP 142 1112.000000
TP 143 112.000000
TP 144 872.000000
TP 145 216.000000
TP 146 984.000000
TP 147 928.000000
TP 148 376.000000
TP 149 612.000000
TP 150 1108.000000
TP 151 112.000000
TP 152 420.000000
TP 153 964.000000
TP 154 500.000000
TP 155 1072.000000
TP 156 1180.000000
TP 157 460.000000
TP 158 512.000000
TP 159 876.000000
TP 160 396.000000
END

EOF
